Route #1: 1 1 17 61 60 24 37 9 32 3 1 
Route #2: 1 43 54 27 28 11 29 18 1 
Route #3: 1 49 46 8 40 13 30 1 
Route #4: 1 31 16 33 50 12 22 35 1 
Route #5: 1 62 41 38 47 10 48 36 4 39 1 
Route #6: 1 52 26 21 34 56 7 20 1 
Route #7: 1 57 2 63 42 23 25 1 
Route #8: 1 55 51 59 14 15 19 45 1 
Route #9: 1 5 6 53 58 44 1 

Cost 1508.34
Time 0.6338


 * Another infos *

 Iterations: 64 Time: 0.6338 sec - 0.0106 min - 0.0002 horas
0.0000 h 0.0106 min
Problem dimension: 64
